\* Problem: Unknown *\

Maximize
 obj: + xp_0_0 + xp_0_1 + xp_0_2 + xp_1_0 + xp_1_1 + xp_1_2 + xp_1_3
 + xp_1_4 + xp_1_5 + xp_1_6 + xp_1_7 + xp_2_0 + xp_2_1 + xp_2_2 + xp_2_3
 + xp_2_4 + xp_2_5 + xp_2_6 + xp_2_7 + xp_3_0 + xp_3_1 + xp_3_2 + xp_3_3
 + xp_3_4 + xp_3_5 + xp_3_6 + xp_3_7 + xp_4_0 + xp_4_1 + xp_4_2 + xp_5_0
 + xp_5_1 + xp_6_0 + xp_6_1 + xp_6_2 + xp_7_0 + xp_8_0 + xp_8_1 + xp_8_2
 + xp_9_0 + xp_9_1 + xp_9_2 + xp_9_3 + xp_10_0 + xp_10_1 + xp_10_2
 + xp_10_3 + xp_11_0 + xp_11_1 + xp_12_0 + xp_13_0 + xp_13_1 + xp_13_2
 + xp_13_3 + xp_14_0 + xp_14_1 + xp_14_2 + xp_14_3 + xp_14_4 + xp_15_0
 + xp_15_1 + xp_15_2 + xp_15_3 + xp_15_4 + xp_16_0 + xp_16_1 + xp_17_0
 + xp_17_1 + xp_17_2 + xp_17_3 + xp_18_0 + xp_18_1 + xp_18_2 + xp_18_3
 + xp_18_4 + xp_19_0 + xp_19_1 + xp_19_2 + xp_19_3 + xp_19_4 + xp_19_5
 + xp_19_6 + xp_19_7 + xp_20_0 + xp_20_1 + xp_20_2 + xp_20_3 + xp_20_4
 + xp_20_5 + xp_20_6 + xp_21_0 + xp_21_1 + xp_21_2 + xp_21_3

Subject To
 r_1: + xp_20_0 <= 0.957542457542458
 r_2: + xp_10_0 + xp_2_1 <= 0.957542457542458
 r_3: + xp_20_6 + xp_20_5 + xp_10_1 + xp_4_2 <= 0.945362718089991
 r_4: + xp_20_2 + xp_18_1 + xp_11_1 + xp_10_3 + xp_1_7
 <= 0.93500424808836
 r_5: + xp_20_3 + xp_19_3 + xp_3_2 + xp_2_7 <= 0.939982347749338
 r_6: + xp_19_4 + xp_11_0 <= 0.951196172248804
 r_7: + xp_20_4 + xp_19_6 + xp_18_4 + xp_10_2 <= 0.972070098576123
 r_8: + xp_20_1 <= 0.926086956521739
 r_9: + xp_2_0 + xp_1_6 <= 0.980437284234753
 r_10: 0 xp_0_0 <= 0.945362718089991
 r_11: + xp_1_3 <= 0.972070098576123
 r_12: 0 xp_0_0 <= 0.926086956521739
 r_13: 0 xp_0_0 <= 0.951196172248804
 r_14: + xp_9_3 + xp_2_4 <= 0.93500424808836
 r_15: + xp_3_3 <= 0.939982347749338
 r_16: + xp_13_2 <= 0.980437284234753
 r_17: 0 xp_0_0 <= 0.957542457542458
 r_18: + xp_19_5 + xp_19_1 <= 0.951196172248804
 r_19: + xp_14_1 <= 0.980437284234753
 r_20: + xp_1_2 <= 0.98969696969697
 r_21: 0 xp_0_0 <= 0.945362718089991
 r_22: + xp_3_6 + xp_2_6 + xp_1_5 + xp_0_2 <= 0.93500424808836
 r_23: 0 xp_0_0 <= 0.926086956521739
 r_24: 0 xp_0_0 <= 0.926086956521739
 r_25: 0 xp_0_0 <= 0.939982347749338
 r_26: + xp_17_0 + xp_15_2 + xp_14_4 <= 0.939982347749338
 r_27: + xp_20_3 + xp_1_0 <= 0.98969696969697
 r_28: + xp_4_1 <= 0.945362718089991
 r_29: + xp_17_1 + xp_15_4 + xp_2_7 + xp_2_5 <= 0.939982347749338
 r_30: + xp_19_7 + xp_18_3 + xp_17_2 + xp_6_2 <= 0.93500424808836
 r_31: + xp_0_1 <= 0.972070098576123
 r_32: + xp_19_3 + xp_19_0 + xp_17_3 <= 0.951196172248804
 r_33: + xp_21_2 + xp_13_1 + xp_1_4 <= 0.98969696969697
 r_34: + xp_13_0 <= 0.951196172248804
 r_35: + xp_17_3 + xp_13_2 + xp_8_2 <= 0.951196172248804
 r_36: + xp_21_3 + xp_21_1 + xp_13_3 + xp_2_3 <= 0.93500424808836
 r_37: + xp_9_1 <= 0.951196172248804
 r_38: 0 xp_0_0 <= 0.926086956521739
 r_39: + xp_21_0 + xp_3_1 <= 0.951196172248804
 r_40: 0 xp_0_0 <= 0.93500424808836
 r_41: 0 xp_0_0 <= 0.957542457542458
 r_42: + xp_17_1 + xp_15_4 + xp_15_3 + xp_14_3 <= 0.980437284234753
 r_43: + xp_1_6 <= 0.98969696969697
 r_44: 0 xp_0_0 <= 0.945362718089991
 r_45: 0 xp_0_0 <= 0.939982347749338
 r_46: 0 xp_0_0 <= 0.972070098576123
 r_47: + xp_19_2 + xp_6_0 <= 0.98969696969697
 r_48: + xp_18_2 + xp_6_1 <= 0.93500424808836
 r_49: 0 xp_0_0 <= 0.945362718089991
 r_50: + xp_20_6 + xp_20_4 + xp_20_3 + xp_19_5 + xp_16_1 + xp_13_1
 <= 0.98969696969697
 r_51: + xp_21_2 + xp_6_2 <= 0.98969696969697
 r_52: + xp_5_0 <= 0.98969696969697
 r_53: + xp_5_1 <= 0.972070098576123
 r_54: + xp_10_3 + xp_2_6 + xp_2_4 + xp_2_3 <= 0.93500424808836
 r_55: + xp_7_0 + xp_1_7 <= 0.93500424808836
 r_56: + xp_19_7 + xp_19_6 + xp_11_1 + xp_8_2 + xp_6_2 + xp_6_1
 <= 0.93500424808836
 r_57: + xp_9_3 <= 0.93500424808836
 r_58: + xp_17_2 + xp_15_1 + xp_8_0 <= 0.93500424808836
 r_59: + xp_20_2 + xp_16_0 + xp_13_3 <= 0.93500424808836
 r_60: + xp_21_1 + xp_3_6 <= 0.93500424808836
 r_61: + xp_21_3 + xp_16_1 + xp_8_1 + xp_1_5 + xp_0_2
 <= 0.972070098576123
 r_62: + xp_20_6 + xp_19_5 + xp_19_2 + xp_18_2 + xp_1_1
 <= 0.945362718089991
 r_63: + xp_19_6 + xp_19_4 + xp_19_3 + xp_18_4 + xp_18_1 + xp_9_2
 <= 0.945362718089991
 r_64: + xp_14_0 <= 0.945362718089991
 r_65: + xp_20_5 + xp_19_1 + xp_14_1 <= 0.945362718089991
 r_66: + xp_19_7 + xp_19_0 + xp_18_3 + xp_14_4 + xp_3_5
 <= 0.945362718089991
 r_67: + xp_14_3 + xp_10_1 + xp_2_2 <= 0.945362718089991
 r_68: + xp_18_0 + xp_14_2 + xp_3_4 <= 0.972070098576123
 r_69: 0 xp_0_0 <= 0.926086956521739
 r_70: 0 xp_0_0 <= 0.926086956521739
 r_71: + xp_15_0 + xp_14_2 + xp_8_1 <= 0.972070098576123
 r_72: + xp_4_2 <= 0.972070098576123
 r_73: + xp_21_3 + xp_15_4 + xp_15_2 + xp_4_1 + xp_3_7 + xp_3_4
 <= 0.972070098576123
 r_74: + xp_15_3 + xp_10_2 + xp_5_1 <= 0.972070098576123
 r_75: + xp_20_4 + xp_16_1 + xp_1_5 + xp_1_3 <= 0.972070098576123
 r_76: + xp_19_6 + xp_18_4 + xp_18_0 + xp_15_1 <= 0.972070098576123
 r_77: + xp_4_0 <= 0.972070098576123
 r_78: + xp_3_0 + xp_2_5 + xp_1_0 + xp_0_1 <= 0.926086956521739
 r_79: + xp_3_7 + xp_0_0 <= 0.926086956521739
 r_80: + xp_9_3 + xp_3_3 + xp_2_4 + xp_2_0 + xp_1_6 + xp_1_3
 <= 0.926086956521739
 r_81: + xp_9_0 + xp_3_2 + xp_2_7 + xp_2_1 + xp_1_7 <= 0.926086956521739
 r_82: + xp_20_1 + xp_3_6 + xp_2_6 + xp_1_5 + xp_1_2 + xp_0_2
 <= 0.926086956521739
 r_83: + xp_12_0 + xp_9_1 + xp_3_1 + xp_2_3 + xp_1_4
 <= 0.926086956521739
 r_84: + xp_9_2 + xp_3_5 + xp_3_4 + xp_2_2 + xp_1_1 <= 0.926086956521739

Bounds
 0 <= xp_0_0 <= 0.727272727272727
 0 <= xp_0_1 <= 0.0909090909090909
 0 <= xp_0_2 <= 0.0909090909090909
 0 <= xp_1_0 <= 0.363636363636364
 0 <= xp_1_1 <= 0.0909090909090909
 0 <= xp_1_2 <= 0.409090909090909
 0 <= xp_1_3 <= 0.0909090909090909
 0 <= xp_1_4 <= 0.181818181818182
 0 <= xp_1_5 <= 0.0454545454545455
 0 <= xp_1_6 <= 0.136363636363636
 0 <= xp_1_7 <= 0.0454545454545455
 0 <= xp_2_0 <= 0.318181818181818
 0 <= xp_2_1 <= 0.0909090909090909
 0 <= xp_2_2 <= 0.590909090909091
 0 <= xp_2_3 <= 0.0454545454545455
 0 <= xp_2_4 <= 0.0909090909090909
 0 <= xp_2_5 <= 0.0909090909090909
 0 <= xp_2_6 <= 0.0909090909090909
 0 <= xp_2_7 <= 0.0454545454545455
 0 <= xp_3_0 <= 0.454545454545455
 0 <= xp_3_1 <= 0.0909090909090909
 0 <= xp_3_2 <= 0.454545454545455
 0 <= xp_3_3 <= 0.272727272727273
 0 <= xp_3_4 <= 0.0909090909090909
 0 <= xp_3_5 <= 0.0909090909090909
 0 <= xp_3_6 <= 0.0909090909090909
 0 <= xp_3_7 <= 0.272727272727273
 0 <= xp_4_0 <= 0.363636363636364
 0 <= xp_4_1 <= 0.0454545454545455
 0 <= xp_4_2 <= 0.0454545454545455
 0 <= xp_5_0 <= 0.636363636363636
 0 <= xp_5_1 <= 0.272727272727273
 0 <= xp_6_0 <= 0.454545454545455
 0 <= xp_6_1 <= 0.363636363636364
 0 <= xp_6_2 <= 0.0909090909090909
 0 <= xp_7_0 <= 0.454545454545455
 0 <= xp_8_0 <= 0.363636363636364
 0 <= xp_8_1 <= 0.0454545454545455
 0 <= xp_8_2 <= 0.0454545454545455
 0 <= xp_9_0 <= 0.227272727272727
 0 <= xp_9_1 <= 0.136363636363636
 0 <= xp_9_2 <= 0.0454545454545455
 0 <= xp_9_3 <= 0.0454545454545455
 0 <= xp_10_0 <= 0.727272727272727
 0 <= xp_10_1 <= 0.0454545454545455
 0 <= xp_10_2 <= 0.227272727272727
 0 <= xp_10_3 <= 0.363636363636364
 0 <= xp_11_0 <= 0.818181818181818
 0 <= xp_11_1 <= 0.0909090909090909
 0 <= xp_12_0 <= 0.454545454545455
 0 <= xp_13_0 <= 0.909090909090909
 0 <= xp_13_1 <= 0.0909090909090909
 0 <= xp_13_2 <= 0.636363636363636
 0 <= xp_13_3 <= 0.181818181818182
 0 <= xp_14_0 <= 0.954545454545455
 0 <= xp_14_1 <= 0.545454545454545
 0 <= xp_14_2 <= 0.545454545454545
 0 <= xp_14_3 <= 0.181818181818182
 0 <= xp_14_4 <= 0.0454545454545455
 0 <= xp_15_0 <= 0.272727272727273
 0 <= xp_15_1 <= 0.272727272727273
 0 <= xp_15_2 <= 0.0909090909090909
 0 <= xp_15_3 <= 0.181818181818182
 0 <= xp_15_4 <= 0.0909090909090909
 0 <= xp_16_0 <= 0.409090909090909
 0 <= xp_16_1 <= 0.0454545454545455
 0 <= xp_17_0 <= 0.727272727272727
 0 <= xp_17_1 <= 0.363636363636364
 0 <= xp_17_2 <= 0.136363636363636
 0 <= xp_17_3 <= 0.136363636363636
 0 <= xp_18_0 <= 0.0909090909090909
 0 <= xp_18_1 <= 0.0454545454545455
 0 <= xp_18_2 <= 0.136363636363636
 0 <= xp_18_3 <= 0.136363636363636
 0 <= xp_18_4 <= 0.0454545454545455
 0 <= xp_19_0 <= 0.454545454545455
 0 <= xp_19_1 <= 0.181818181818182
 0 <= xp_19_2 <= 0.318181818181818
 0 <= xp_19_3 <= 0.136363636363636
 0 <= xp_19_4 <= 0.0909090909090909
 0 <= xp_19_5 <= 0.0454545454545455
 0 <= xp_19_6 <= 0.0909090909090909
 0 <= xp_19_7 <= 0.0454545454545455
 0 <= xp_20_0 <= 1
 0 <= xp_20_1 <= 0.181818181818182
 0 <= xp_20_2 <= 0.181818181818182
 0 <= xp_20_3 <= 0.181818181818182
 0 <= xp_20_4 <= 0.363636363636364
 0 <= xp_20_5 <= 0.181818181818182
 0 <= xp_20_6 <= 0.181818181818182
 0 <= xp_21_0 <= 0.590909090909091
 0 <= xp_21_1 <= 0.363636363636364
 0 <= xp_21_2 <= 0.363636363636364
 0 <= xp_21_3 <= 0.0454545454545455

End
